NAME : X-n219-80-k59
COMMENT : "Generated by Queiroga, Frota, Sadykov, Subramanian, Uchoa and Vidal (2019)" 
TYPE : CVRP
DIMENSION : 219
EDGE_WEIGHT_TYPE : EUC_2D
CAPACITY : 3
NODE_COORD_SECTION
1 -1 0 0
2 0 18 761
3 0 835 397
4 0 299 16
5 0 31 168
6 0 142 257
7 0 242 984
8 0 612 357
9 0 663 812
10 0 105 188
11 0 487 636
12 0 993 703
13 0 672 148
14 0 506 259
15 0 953 706
16 0 888 203
17 0 107 534
18 0 772 692
19 0 475 182
20 0 828 775
21 0 719 220
22 0 655 722
23 0 844 197
24 0 918 600
25 0 460 844
26 0 739 102
27 0 301 523
28 0 341 627
29 0 989 936
30 0 935 602
31 0 44 72
32 0 861 67
33 0 163 416
34 0 981 503
35 0 722 397
36 0 317 903
37 0 547 95
38 0 944 106
39 0 935 192
40 0 128 376
41 0 908 176
42 0 720 226
43 0 738 793
44 0 791 498
45 0 712 751
46 0 530 693
47 0 141 673
48 0 380 544
49 0 634 301
50 0 427 853
51 0 606 949
52 0 47 557
53 0 48 202
54 0 791 67
55 0 546 876
56 0 526 842
57 0 535 216
58 0 828 214
59 0 829 352
60 0 623 473
61 0 374 1000
62 0 74 187
63 0 275 415
64 0 726 789
65 0 51 597
66 0 894 395
67 0 159 743
68 0 301 893
69 0 755 946
70 0 978 261
71 0 709 153
72 0 391 153
73 0 876 370
74 0 846 725
75 0 604 107
76 0 117 709
77 0 507 89
78 0 348 744
79 0 476 204
80 0 181 957
81 0 948 710
82 0 158 788
83 0 414 685
84 0 358 66
85 0 196 732
86 0 283 343
87 0 456 931
88 0 5 468
89 0 459 43
90 0 555 414
91 0 94 964
92 0 558 360
93 0 641 424
94 0 132 16
95 0 777 947
96 0 25 205
97 0 852 45
98 0 5 686
99 0 400 682
100 0 501 234
101 0 905 968
102 0 492 971
103 0 817 114
104 0 651 941
105 0 817 643
106 0 735 937
107 0 333 829
108 0 223 584
109 0 306 412
110 0 209 663
111 0 206 549
112 0 542 691
113 0 296 10
114 0 215 747
115 0 148 641
116 0 9 553
117 0 411 59
118 0 382 800
119 0 824 612
120 0 608 727
121 0 481 574
122 0 169 950
123 0 350 608
124 0 396 536
125 0 36 459
126 0 359 339
127 0 798 917
128 0 10 569
129 0 813 10
130 0 569 627
131 0 692 467
132 0 166 178
133 0 247 413
134 0 738 487
135 0 508 327
136 0 158 986
137 0 983 244
138 0 637 109
139 0 177 207
140 0 357 374
141 0 361 972
142 0 365 701
143 0 582 957
144 0 712 996
145 0 932 452
146 0 847 981
147 0 60 66
148 0 252 267
149 0 944 435
150 0 338 688
151 0 900 168
152 0 583 871
153 0 852 59
154 0 921 72
155 0 845 534
156 0 387 253
157 0 812 354
158 0 5 404
159 0 590 575
160 0 930 128
161 0 184 742
162 0 832 466
163 0 285 346
164 0 548 976
165 0 32 531
166 0 966 58
167 0 31 40
168 0 162 539
169 0 621 425
170 0 802 495
171 0 385 493
172 0 769 329
173 0 921 15
174 0 64 106
175 0 854 678
176 0 943 122
177 1 103 285
178 1 304 739
179 1 398 212
180 1 335 459
181 1 43 108
182 1 400 255
183 1 935 851
184 1 179 147
185 1 822 749
186 1 60 32
187 1 829 992
188 1 783 760
189 1 218 360
190 1 321 463
191 1 403 172
192 1 32 134
193 1 218 490
194 1 44 456
195 1 430 570
196 1 896 875
197 1 509 572
198 1 424 936
199 1 639 505
200 1 914 852
201 1 984 435
202 1 479 341
203 1 207 937
204 1 709 700
205 1 235 795
206 1 557 130
207 1 270 964
208 1 482 320
209 1 60 761
210 1 836 272
211 1 413 327
212 1 509 379
213 1 961 329
214 1 819 754
215 1 176 910
216 1 648 809
217 1 640 892
218 1 838 79
219 1 552 232
DEMAND_SECTION
1 0
2 1
3 1
4 1
5 1
6 1
7 1
8 1
9 1
10 1
11 1
12 1
13 1
14 1
15 1
16 1
17 1
18 1
19 1
20 1
21 1
22 1
23 1
24 1
25 1
26 1
27 1
28 1
29 1
30 1
31 1
32 1
33 1
34 1
35 1
36 1
37 1
38 1
39 1
40 1
41 1
42 1
43 1
44 1
45 1
46 1
47 1
48 1
49 1
50 1
51 1
52 1
53 1
54 1
55 1
56 1
57 1
58 1
59 1
60 1
61 1
62 1
63 1
64 1
65 1
66 1
67 1
68 1
69 1
70 1
71 1
72 1
73 1
74 1
75 1
76 1
77 1
78 1
79 1
80 1
81 1
82 1
83 1
84 1
85 1
86 1
87 1
88 1
89 1
90 1
91 1
92 1
93 1
94 1
95 1
96 1
97 1
98 1
99 1
100 1
101 1
102 1
103 1
104 1
105 1
106 1
107 1
108 1
109 1
110 1
111 1
112 1
113 1
114 1
115 1
116 1
117 1
118 1
119 1
120 1
121 1
122 1
123 1
124 1
125 1
126 1
127 1
128 1
129 1
130 1
131 1
132 1
133 1
134 1
135 1
136 1
137 1
138 1
139 1
140 1
141 1
142 1
143 1
144 1
145 1
146 1
147 1
148 1
149 1
150 1
151 1
152 1
153 1
154 1
155 1
156 1
157 1
158 1
159 1
160 1
161 1
162 1
163 1
164 1
165 1
166 1
167 1
168 1
169 1
170 1
171 1
172 1
173 1
174 1
175 1
176 1
177 1
178 1
179 1
180 1
181 1
182 1
183 1
184 1
185 1
186 1
187 1
188 1
189 1
190 1
191 1
192 1
193 1
194 1
195 1
196 1
197 1
198 1
199 1
200 1
201 1
202 1
203 1
204 1
205 1
206 1
207 1
208 1
209 1
210 1
211 1
212 1
213 1
214 1
215 1
216 1
217 1
218 1
219 1
DEPOT_SECTION
1
-1
EOF
